Route #1: 107 118 99
Route #2: 129 106 75
Route #3: 47 126 116 135 115
Route #4: 77 109 2 122 84
Route #5: 98 67 61 7 101 103
Route #6: 86 27 146 128
Route #7: 68 54 10 14 57 81 120 20
Route #8: 44 88 42
Route #9: 23 73 52 105 40
Route #10: 132 97 78 144 94
Route #11: 56 51 65 64 138
Route #12: 136 104 32 112 17 142
Route #13: 140 143 28 133 41
Route #14: 69 11 24 63 29 25 5 59
Route #15: 58 21 12 3 117
Route #16: 124 30 45 60 102 131 16 74 31
Route #17: 18 82 113 70 35 92
Route #18: 110 137 127 85 134 62
Route #19: 39 89 100 6 48 119 80
Route #20: 53 114 8 37 26 130
Route #21: 87 76 95 1 71
Route #22: 46 72 83 49 145 66 13 36 33
Route #23: 79 139 91 123
Route #24: 121 38 50 9 141 147
Route #25: 19 4 15 108 90 125
Route #26: 43 93 55 22 34 96 111
Cost 31136.000000